173518.43,50.27,62.34
180059.15,48.44,60.07
172434.22,50.59,62.73
164976.05,52.87,65.57
191771.26,45.49,56.41
184199.13,47.35,58.72
187691.69,46.47,57.63
175648.17,49.66,61.58
180062.35,48.44,60.07
170169.34,51.26,63.56
174178.42,50.08,62.1
180163.71,48.42,60.04
180072.51,48.44,60.07
156924.72,55.58,68.93
172209.72,50.65,62.81
176042.1,49.55,61.44
175984.97,49.56,61.46
175518.84,49.7,61.63
190428.22,45.81,56.8
173488.32,50.28,62.35
